NAME          ClpDefau
ROWS
 N  OBJROW
 L  R_104_0
 L  R_104_1
 L  R_104_2
 L  R_104_3
 L  R_104_4
 L  R_104_5
 L  R_104_6
 L  R_104_7
COLUMNS
    x_0       OBJROW     -1.           R_104_0   5.          
    x_0       R_104_1   21.            R_104_3   93.         
    x_0       R_104_5   48.            R_104_6   57.         
    x_0       R_104_7   5.          
    x_1       OBJROW     -2.           R_104_1   41.         
    x_1       R_104_3   68.            R_104_4   23.         
    x_1       R_104_5   4.             R_104_6   23.         
    x_1       R_104_7   66.         
    x_2       OBJROW     -2.           R_104_0   66.         
    x_2       R_104_1   24.            R_104_3   54.         
    x_2       R_104_4   98.            R_104_5   76.         
    x_2       R_104_6   58.            R_104_7   97.         
    x_3       OBJROW     -6.           R_104_0   95.         
    x_3       R_104_1   68.            R_104_2   36.         
    x_3       R_104_4   46.            R_104_5   59.         
    x_3       R_104_7   73.         
    x_4       OBJROW     -3.           R_104_0   72.         
    x_4       R_104_1   63.            R_104_2   42.         
    x_4       R_104_6   99.         
    x_5       OBJROW     -5.           R_104_0   91.         
    x_5       R_104_2   65.            R_104_3   76.         
    x_5       R_104_4   94.            R_104_5   66.         
    x_5       R_104_6   88.            R_104_7   10.         
    x_6       OBJROW     -5.           R_104_0   44.         
    x_6       R_104_1   25.            R_104_3   74.         
    x_6       R_104_4   35.            R_104_5   88.         
    x_6       R_104_7   67.         
    x_7       OBJROW     -10.          R_104_0   35.         
    x_7       R_104_1   27.            R_104_3   92.         
    x_7       R_104_4   8.             R_104_5   23.         
    x_7       R_104_6   4.             R_104_7   9.          
RHS
    RHS       R_104_0   92.            R_104_1   100.        
    RHS       R_104_2   90.            R_104_3   271.        
    RHS       R_104_4   210.           R_104_5   145.        
    RHS       R_104_6   160.           R_104_7   174.        
BOUNDS
 UI BOUND     x_0       10.         
 UI BOUND     x_1       10.         
 UI BOUND     x_2       10.         
 UI BOUND     x_3       10.         
 UI BOUND     x_4       10.         
 UI BOUND     x_5       10.         
 UI BOUND     x_6       10.         
 UI BOUND     x_7       10.         
ENDATA
